TCS_Benchmarks/redos_fix/corpus3_output_distinct_978_977_36_0.txt
(([1-9\-A-Z.]+)\s*[ \-A-Za-z]+)(\s*)
(([1-9\-A-Z.]+)\s*[ \-A-Za-z]+)(\s*)